certificates/rado_a13_c220_N24.cnf
c Rad2 upper bound instance: x1 + 13*x2 - x3 = 220, interval [1,24]
p cnf 24 90
1 2 17 0
-1 -2 -17 0
1 15 18 0
-1 -15 -18 0
2 3 17 0
-2 -3 -17 0
2 16 18 0
-2 -16 -18 0
3 4 17 0
-3 -4 -17 0
3 17 18 0
-3 -17 -18 0
4 5 17 0
-4 -5 -17 0
4 18 0
-4 -18 0
5 6 17 0
-5 -6 -17 0
5 18 19 0
-5 -18 -19 0
6 7 17 0
-6 -7 -17 0
6 18 20 0
-6 -18 -20 0
7 8 17 0
-7 -8 -17 0
7 18 21 0
-7 -18 -21 0
8 9 17 0
-8 -9 -17 0
8 18 22 0
-8 -18 -22 0
9 10 17 0
-9 -10 -17 0
9 18 23 0
-9 -18 -23 0
10 11 17 0
-10 -11 -17 0
10 18 24 0
-10 -18 -24 0
11 12 17 0
-11 -12 -17 0
12 13 17 0
-12 -13 -17 0
1 13 16 0
-1 -13 -16 0
13 14 17 0
-13 -14 -17 0
2 14 16 0
-2 -14 -16 0
14 15 17 0
-14 -15 -17 0
3 15 16 0
-3 -15 -16 0
15 16 17 0
-15 -16 -17 0
4 16 0
-4 -16 0
16 17 0
-16 -17 0
5 16 17 0
-5 -16 -17 0
17 18 0
-17 -18 0
6 16 18 0
-6 -16 -18 0
17 18 19 0
-17 -18 -19 0
7 16 19 0
-7 -16 -19 0
17 19 20 0
-17 -19 -20 0
8 16 20 0
-8 -16 -20 0
17 20 21 0
-17 -20 -21 0
9 16 21 0
-9 -16 -21 0
17 21 22 0
-17 -21 -22 0
10 16 22 0
-10 -16 -22 0
17 22 23 0
-17 -22 -23 0
11 16 23 0
-11 -16 -23 0
17 23 24 0
-17 -23 -24 0
12 16 24 0
-12 -16 -24 0
