certificates/rado_a13_c220_N24.drat
-23 -24 0
d -23 -17 -24 0
-18 -24 0
-24 0
18 0
-4 0
-17 0
3 0
5 0
16 0
23 0
-15 0
-19 0
-6 0
-11 0
-2 0
-9 0
14 0
20 0
7 0
10 0
12 0
1 0
8 0
0
